c Qdimacs file from skolem function generator
p cnf 283 762
a 188 190 192 194 196 198 200 202 204 206 208 210 212 214 216 218 220 222 224 226 228 230 232 234 236 238 240 242 244 246 248 250 251 252 253 254 255 256 257 258 259 260 261 262 263 264 265 266 267 268 269 270 271 272 273 274 275 276 277 278 279 280 281 282 0
e 187 189 191 193 195 197 199 201 203 205 207 209 211 213 215 217 219 221 223 225 227 229 231 233 235 237 239 241 243 245 247 249 1 2 3 4 5 6 7 8 9 10 11 12 13 14 15 16 17 18 19 20 21 22 23 24 25 26 27 28 29 30 31 32 33 34 35 36 37 38 39 40 41 42 43 44 45 46 47 48 49 50 51 52 53 54 55 56 57 58 59 60 61 62 63 64 65 66 67 68 69 70 71 72 73 74 75 76 77 78 79 80 81 82 83 84 85 86 87 88 89 90 91 92 93 94 95 96 97 98 99 100 101 102 103 104 105 106 107 108 109 110 111 112 113 114 115 116 117 118 119 120 121 122 123 124 125 126 127 128 129 130 131 132 133 134 135 136 137 138 139 140 141 142 143 144 145 146 147 148 149 150 151 152 153 154 155 156 157 158 159 160 161 162 163 164 165 166 167 168 169 170 171 172 173 174 175 176 177 178 179 180 181 182 183 184 185 186 283 0
4 5 72 77 -80 0
-4 80 0
-4 -77 0
-4 -5 0
-4 -72 0
5 252 -6 0
5 -252 6 0
-5 -252 -6 0
-5 252 6 0
6 -7 -71 0
6 7 71 0
-6 7 -71 0
-6 -7 71 0
7 189 8 0
7 190 8 0
-7 -8 0
-7 -189 -190 0
8 189 -190 9 0
8 -189 190 9 0
-8 -9 0
-8 189 190 0
-8 -189 -190 0
9 191 10 0
9 192 10 0
-9 -10 0
-9 -191 -192 0
10 11 -70 0
-10 -11 0
-10 70 0
11 193 12 0
11 194 12 0
-11 -12 0
-11 -193 -194 0
12 193 -194 13 0
12 -193 194 13 0
-12 -13 0
-12 193 194 0
-12 -193 -194 0
13 195 14 0
13 196 14 0
-13 -14 0
-13 -195 -196 0
14 195 -196 15 0
14 -195 196 15 0
-14 -15 0
-14 195 196 0
-14 -195 -196 0
15 197 16 0
15 198 16 0
-15 -16 0
-15 -197 -198 0
16 197 -198 17 0
16 -197 198 17 0
-16 -17 0
-16 197 198 0
-16 -197 -198 0
17 199 18 0
17 200 18 0
-17 -18 0
-17 -199 -200 0
18 199 -200 19 0
18 -199 200 19 0
-18 -19 0
-18 199 200 0
-18 -199 -200 0
19 201 20 0
19 202 20 0
-19 -20 0
-19 -201 -202 0
20 201 -202 21 0
20 -201 202 21 0
-20 -21 0
-20 201 202 0
-20 -201 -202 0
21 203 22 0
21 204 22 0
-21 -22 0
-21 -203 -204 0
22 23 -69 0
-22 -23 0
-22 69 0
23 205 24 0
23 206 24 0
-23 -24 0
-23 -205 -206 0
24 205 -206 25 0
24 -205 206 25 0
-24 -25 0
-24 205 206 0
-24 -205 -206 0
25 207 26 0
25 208 26 0
-25 -26 0
-25 -207 -208 0
26 207 -208 27 0
26 -207 208 27 0
-26 -27 0
-26 207 208 0
-26 -207 -208 0
27 209 28 0
27 210 28 0
-27 -28 0
-27 -209 -210 0
28 209 -210 29 0
28 -209 210 29 0
-28 -29 0
-28 209 210 0
-28 -209 -210 0
29 211 30 0
29 212 30 0
-29 -30 0
-29 -211 -212 0
30 211 -212 31 0
30 -211 212 31 0
-30 -31 0
-30 211 212 0
-30 -211 -212 0
31 213 32 0
31 214 32 0
-31 -32 0
-31 -213 -214 0
32 213 -214 33 0
32 -213 214 33 0
-32 -33 0
-32 213 214 0
-32 -213 -214 0
33 215 34 0
33 216 34 0
-33 -34 0
-33 -215 -216 0
34 215 -216 35 0
34 -215 216 35 0
-34 -35 0
-34 215 216 0
-34 -215 -216 0
35 217 36 0
35 218 36 0
-35 -36 0
-35 -217 -218 0
36 217 -218 37 0
36 -217 218 37 0
-36 -37 0
-36 217 218 0
-36 -217 -218 0
37 219 38 0
37 220 38 0
-37 -38 0
-37 -219 -220 0
38 219 -220 39 0
38 -219 220 39 0
-38 -39 0
-38 219 220 0
-38 -219 -220 0
39 221 40 0
39 222 40 0
-39 -40 0
-39 -221 -222 0
40 221 -222 41 0
40 -221 222 41 0
-40 -41 0
-40 221 222 0
-40 -221 -222 0
41 223 42 0
41 224 42 0
-41 -42 0
-41 -223 -224 0
42 43 -68 0
-42 -43 0
-42 68 0
43 225 44 0
43 226 44 0
-43 -44 0
-43 -225 -226 0
44 225 -226 45 0
44 -225 226 45 0
-44 -45 0
-44 225 226 0
-44 -225 -226 0
45 227 46 0
45 228 46 0
-45 -46 0
-45 -227 -228 0
46 227 -228 47 0
46 -227 228 47 0
-46 -47 0
-46 227 228 0
-46 -227 -228 0
47 229 48 0
47 230 48 0
-47 -48 0
-47 -229 -230 0
48 229 -230 49 0
48 -229 230 49 0
-48 -49 0
-48 229 230 0
-48 -229 -230 0
49 231 50 0
49 232 50 0
-49 -50 0
-49 -231 -232 0
50 51 -67 0
-50 -51 0
-50 67 0
51 233 52 0
51 234 52 0
-51 -52 0
-51 -233 -234 0
52 233 -234 53 0
52 -233 234 53 0
-52 -53 0
-52 233 234 0
-52 -233 -234 0
53 235 54 0
53 236 54 0
-53 -54 0
-53 -235 -236 0
54 55 -66 0
-54 -55 0
-54 66 0
55 237 56 0
55 238 56 0
-55 -56 0
-55 -237 -238 0
56 237 -238 57 0
56 -237 238 57 0
-56 -57 0
-56 237 238 0
-56 -237 -238 0
57 239 58 0
57 240 58 0
-57 -58 0
-57 -239 -240 0
58 239 -240 59 0
58 -239 240 59 0
-58 -59 0
-58 239 240 0
-58 -239 -240 0
59 241 60 0
59 242 60 0
-59 -60 0
-59 -241 -242 0
60 241 -242 61 0
60 -241 242 61 0
-60 -61 0
-60 241 242 0
-60 -241 -242 0
61 243 62 0
61 244 62 0
-61 -62 0
-61 -243 -244 0
62 63 -65 0
-62 -63 0
-62 65 0
63 245 64 0
63 246 64 0
63 245 246 0
-63 -245 -246 0
-63 -246 -64 0
-63 -245 -64 0
64 -247 -248 0
-64 247 0
-64 248 0
65 243 -244 0
65 -243 244 0
-65 -243 -244 0
-65 243 244 0
66 235 -236 0
66 -235 236 0
-66 -235 -236 0
-66 235 236 0
67 231 -232 0
67 -231 232 0
-67 -231 -232 0
-67 231 232 0
68 223 -224 0
68 -223 224 0
-68 -223 -224 0
-68 223 224 0
69 203 -204 0
69 -203 204 0
-69 -203 -204 0
-69 203 204 0
70 191 -192 0
70 -191 192 0
-70 -191 -192 0
-70 191 192 0
71 187 -188 0
71 -187 188 0
-71 -187 -188 0
-71 187 188 0
72 -73 -75 0
72 73 75 0
-72 73 -75 0
-72 -73 75 0
73 187 74 0
73 188 74 0
-73 -74 0
-73 -187 -188 0
74 187 -188 7 0
74 -187 188 7 0
-74 -7 0
-74 187 188 0
-74 -187 -188 0
75 251 -76 0
75 -251 76 0
-75 -251 -76 0
-75 251 76 0
76 249 -250 0
76 -249 250 0
-76 -249 -250 0
-76 249 250 0
77 253 -78 0
77 -253 78 0
-77 -253 -78 0
-77 253 78 0
78 -9 -79 0
78 9 79 0
-78 9 -79 0
-78 -9 79 0
79 189 -190 0
79 -189 190 0
-79 -189 -190 0
-79 189 190 0
80 81 83 86 -89 0
-80 89 0
-80 -86 0
-80 -81 0
-80 -83 0
81 254 -82 0
81 -254 82 0
-81 -254 -82 0
-81 254 82 0
82 -11 -70 0
82 11 70 0
-82 11 -70 0
-82 -11 70 0
83 255 -84 0
83 -255 84 0
-83 -255 -84 0
-83 255 84 0
84 -13 -85 0
84 13 85 0
-84 13 -85 0
-84 -13 85 0
85 193 -194 0
85 -193 194 0
-85 -193 -194 0
-85 193 194 0
86 256 -87 0
86 -256 87 0
-86 -256 -87 0
-86 256 87 0
87 -15 -88 0
87 15 88 0
-87 15 -88 0
-87 -15 88 0
88 195 -196 0
88 -195 196 0
-88 -195 -196 0
-88 195 196 0
89 90 93 -96 0
-89 96 0
-89 -93 0
-89 -90 0
90 257 -91 0
90 -257 91 0
-90 -257 -91 0
-90 257 91 0
91 -17 -92 0
91 17 92 0
-91 17 -92 0
-91 -17 92 0
92 197 -198 0
92 -197 198 0
-92 -197 -198 0
-92 197 198 0
93 258 -94 0
93 -258 94 0
-93 -258 -94 0
-93 258 94 0
94 -19 -95 0
94 19 95 0
-94 19 -95 0
-94 -19 95 0
95 199 -200 0
95 -199 200 0
-95 -199 -200 0
-95 199 200 0
96 97 100 -102 0
-96 102 0
-96 -100 0
-96 -97 0
97 259 -98 0
97 -259 98 0
-97 -259 -98 0
-97 259 98 0
98 -21 -99 0
98 21 99 0
-98 21 -99 0
-98 -21 99 0
99 201 -202 0
99 -201 202 0
-99 -201 -202 0
-99 201 202 0
100 260 -101 0
100 -260 101 0
-100 -260 -101 0
-100 260 101 0
101 -23 -69 0
101 23 69 0
-101 23 -69 0
-101 -23 69 0
102 103 106 -109 0
-102 109 0
-102 -106 0
-102 -103 0
103 261 -104 0
103 -261 104 0
-103 -261 -104 0
-103 261 104 0
104 -25 -105 0
104 25 105 0
-104 25 -105 0
-104 -25 105 0
105 205 -206 0
105 -205 206 0
-105 -205 -206 0
-105 205 206 0
106 262 -107 0
106 -262 107 0
-106 -262 -107 0
-106 262 107 0
107 -27 -108 0
107 27 108 0
-107 27 -108 0
-107 -27 108 0
108 207 -208 0
108 -207 208 0
-108 -207 -208 0
-108 207 208 0
109 110 113 -116 0
-109 116 0
-109 -113 0
-109 -110 0
110 263 -111 0
110 -263 111 0
-110 -263 -111 0
-110 263 111 0
111 -29 -112 0
111 29 112 0
-111 29 -112 0
-111 -29 112 0
112 209 -210 0
112 -209 210 0
-112 -209 -210 0
-112 209 210 0
113 264 -114 0
113 -264 114 0
-113 -264 -114 0
-113 264 114 0
114 -31 -115 0
114 31 115 0
-114 31 -115 0
-114 -31 115 0
115 211 -212 0
115 -211 212 0
-115 -211 -212 0
-115 211 212 0
116 117 120 -123 0
-116 123 0
-116 -120 0
-116 -117 0
117 265 -118 0
117 -265 118 0
-117 -265 -118 0
-117 265 118 0
118 -33 -119 0
118 33 119 0
-118 33 -119 0
-118 -33 119 0
119 213 -214 0
119 -213 214 0
-119 -213 -214 0
-119 213 214 0
120 266 -121 0
120 -266 121 0
-120 -266 -121 0
-120 266 121 0
121 -35 -122 0
121 35 122 0
-121 35 -122 0
-121 -35 122 0
122 215 -216 0
122 -215 216 0
-122 -215 -216 0
-122 215 216 0
123 124 127 -130 0
-123 130 0
-123 -127 0
-123 -124 0
124 267 -125 0
124 -267 125 0
-124 -267 -125 0
-124 267 125 0
125 -37 -126 0
125 37 126 0
-125 37 -126 0
-125 -37 126 0
126 217 -218 0
126 -217 218 0
-126 -217 -218 0
-126 217 218 0
127 268 -128 0
127 -268 128 0
-127 -268 -128 0
-127 268 128 0
128 -39 -129 0
128 39 129 0
-128 39 -129 0
-128 -39 129 0
129 219 -220 0
129 -219 220 0
-129 -219 -220 0
-129 219 220 0
130 131 134 -136 0
-130 136 0
-130 -134 0
-130 -131 0
131 269 -132 0
131 -269 132 0
-131 -269 -132 0
-131 269 132 0
132 -41 -133 0
132 41 133 0
-132 41 -133 0
-132 -41 133 0
133 221 -222 0
133 -221 222 0
-133 -221 -222 0
-133 221 222 0
134 270 -135 0
134 -270 135 0
-134 -270 -135 0
-134 270 135 0
135 -43 -68 0
135 43 68 0
-135 43 -68 0
-135 -43 68 0
136 137 140 -143 0
-136 143 0
-136 -140 0
-136 -137 0
137 271 -138 0
137 -271 138 0
-137 -271 -138 0
-137 271 138 0
138 -45 -139 0
138 45 139 0
-138 45 -139 0
-138 -45 139 0
139 225 -226 0
139 -225 226 0
-139 -225 -226 0
-139 225 226 0
140 272 -141 0
140 -272 141 0
-140 -272 -141 0
-140 272 141 0
141 -47 -142 0
141 47 142 0
-141 47 -142 0
-141 -47 142 0
142 227 -228 0
142 -227 228 0
-142 -227 -228 0
-142 227 228 0
143 144 147 -149 0
-143 149 0
-143 -147 0
-143 -144 0
144 273 -145 0
144 -273 145 0
-144 -273 -145 0
-144 273 145 0
145 -49 -146 0
145 49 146 0
-145 49 -146 0
-145 -49 146 0
146 229 -230 0
146 -229 230 0
-146 -229 -230 0
-146 229 230 0
147 274 -148 0
147 -274 148 0
-147 -274 -148 0
-147 274 148 0
148 -51 -67 0
148 51 67 0
-148 51 -67 0
-148 -51 67 0
149 150 153 -155 0
-149 155 0
-149 -153 0
-149 -150 0
150 275 -151 0
150 -275 151 0
-150 -275 -151 0
-150 275 151 0
151 -53 -152 0
151 53 152 0
-151 53 -152 0
-151 -53 152 0
152 233 -234 0
152 -233 234 0
-152 -233 -234 0
-152 233 234 0
153 276 -154 0
153 -276 154 0
-153 -276 -154 0
-153 276 154 0
154 -55 -66 0
154 55 66 0
-154 55 -66 0
-154 -55 66 0
155 156 159 162 -165 0
-155 165 0
-155 -162 0
-155 -156 0
-155 -159 0
156 277 -157 0
156 -277 157 0
-156 -277 -157 0
-156 277 157 0
157 -57 -158 0
157 57 158 0
-157 57 -158 0
-157 -57 158 0
158 237 -238 0
158 -237 238 0
-158 -237 -238 0
-158 237 238 0
159 278 -160 0
159 -278 160 0
-159 -278 -160 0
-159 278 160 0
160 -59 -161 0
160 59 161 0
-160 59 -161 0
-160 -59 161 0
161 239 -240 0
161 -239 240 0
-161 -239 -240 0
-161 239 240 0
162 279 -163 0
162 -279 163 0
-162 -279 -163 0
-162 279 163 0
163 -61 -164 0
163 61 164 0
-163 61 -164 0
-163 -61 164 0
164 241 -242 0
164 -241 242 0
-164 -241 -242 0
-164 241 242 0
165 166 168 171 0
-165 -166 0
-165 -171 0
-165 -168 0
166 280 -167 0
166 -280 167 0
-166 -280 -167 0
-166 280 167 0
167 -63 -65 0
167 63 65 0
-167 63 -65 0
-167 -63 65 0
168 281 -169 0
168 -281 169 0
-168 -281 -169 0
-168 281 169 0
169 64 -170 0
169 -64 170 0
-169 -64 -170 0
-169 64 170 0
170 245 -246 0
170 -245 246 0
-170 -245 -246 0
-170 245 246 0
171 282 -172 0
171 -282 172 0
-171 -282 -172 0
-171 282 172 0
172 247 -248 0
172 -247 248 0
-172 -247 -248 0
-172 247 248 0
173 166 168 171 -174 0
-173 174 0
-173 -171 0
-173 -166 0
-173 -168 0
174 159 162 -175 0
-174 175 0
-174 -162 0
-174 -159 0
175 153 156 -176 0
-175 176 0
-175 -156 0
-175 -153 0
176 147 150 -177 0
-176 177 0
-176 -150 0
-176 -147 0
177 140 144 -178 0
-177 178 0
-177 -144 0
-177 -140 0
178 134 137 -179 0
-178 179 0
-178 -137 0
-178 -134 0
179 127 131 -180 0
-179 180 0
-179 -131 0
-179 -127 0
180 120 124 -181 0
-180 181 0
-180 -124 0
-180 -120 0
181 113 117 -182 0
-181 182 0
-181 -117 0
-181 -113 0
182 106 110 -183 0
-182 183 0
-182 -110 0
-182 -106 0
183 100 103 -184 0
-183 184 0
-183 -103 0
-183 -100 0
184 93 97 -185 0
-184 185 0
-184 -97 0
-184 -93 0
185 83 86 90 -186 0
-185 186 0
-185 -90 0
-185 -83 0
-185 -86 0
186 5 72 77 81 0
-186 -81 0
-186 -77 0
-186 -5 0
-186 -72 0
283 0
2 -4 0
-2 4 0
3 -173 0
-3 173 0
3 0

